20200116 648506.75 641738.39
20171231 640600.00 622600.00
20171228 779404.81 622543.48
20170707 762528.72 622526.03
20160630 766413.23 626556.85
20151231 766413.23 626449.37
20150630 770595.41 626189.31
